WARNING: for repeatability, setting FPU to use double precision
============================[ Problem Statistics ]=============================
|                                                                             |
|  Number of variables:           100                                         |
|  Number of clauses:             449                                         |
|  Parse time:                   0.00 s                                       |
|  Simplification time:          0.00 s                                       |
|                                                                             |
============================[ Search Statistics ]==============================
| Conflicts |          ORIGINAL         |          LEARNT          | Progress |
|           |    Vars  Clauses Literals |    Limit  Clauses Lit/Cl |          |
===============================================================================
|       100 |     100      447     1340 |      163      100      6 |  0.020 % |
===============================================================================
restarts              : 2
conflicts             : 154            (57873 /sec)
decisions             : 202            (0.00 % random) (75911 /sec)
propagations          : 3661           (1375799 /sec)
conflict literals     : 956            (20.07 % deleted)
Memory used           : 13.00 MB
CPU time              : 0.002661 s

SATISFIABLE
